NAME : XML100_2254_18
DIMENSION : 101
NB_CLUSTERS : 5
CLUSTERING_ALG : KMeans
CLUSTERING_PARAMS : k(4)
CLUSTERS
1 0
2 2 9 10 13 40 45 55 56 61 65 67 68 75 94 96 98 100
3 1 3 12 15 18 19 25 26 27 28 29 30 34 36 37 42 43 46 47 49 53 62 64 69 76 78 81 86 87 88 91 92 93
4 4 8 11 16 20 23 39 48 50 51 54 58 59 60 70 71 73 74 77 82 83 84 95
5 5 6 7 14 17 21 22 24 31 32 33 35 38 41 44 52 57 63 66 72 79 80 85 89 90 97 99
EOF